
Gurobi 9.5.1 (win64) logging started Thu Nov  9 18:12:51 2023

Set parameter LogFile to value "consol_info_8"

Gurobi 9.5.1 (win64) logging started Sat Nov 11 13:13:48 2023

Set parameter LogFile to value "consol_info_8"
